   H2O                                  
  0.52917999999999998     
    12.0000000000000000    0.0000000000000000    0.0000000000000000
     0.0000000000000000   12.0000000000000000    0.0000000000000000
     0.0000000000000000    0.0000000000000000   12.0000000000000000
   O    H 
     1     2
Selective dynamics
Direct
  0.0000000000000000  0.0000000000000000  0.0000000000000000   F   F   F
  0.0916749027982931  0.8808226005587169  0.0000000000000000   T   T   F
  0.0916745808533336  0.1191776833784737  0.0000000000000000   T   T   F

  0.00000000E+00  0.00000000E+00  0.00000000E+00
  0.76882902E-03 -0.10075871E-02  0.00000000E+00
  0.75368531E-03  0.10209430E-02  0.00000000E+00

           1
   1.4999999999999999E-002
  0.10000000E+01  0.00000000E+00  0.00000000E+00  0.00000000E+00
  0.00000000E+00  0.00000000E+00  0.00000000E+00
  0.91676719E-01  0.88082022E+00  0.00000000E+00
  0.91676361E-01  0.11918009E+00  0.00000000E+00
  0.00000000E+00  0.00000000E+00  0.00000000E+00
  0.17261830E-05 -0.22616038E-05  0.00000000E+00
  0.16904113E-05  0.22931524E-05  0.00000000E+00
  0.00000000E+00  0.00000000E+00  0.00000000E+00
  0.00000000E+00  0.00000000E+00  0.00000000E+00
  0.00000000E+00  0.00000000E+00  0.00000000E+00
