ISMEAR = 0
SIGMA  = 0.1

ENCUT = 520      ! largest ENMAX from POTCAR +30%

IBRION = 0       ! Performs a finite difference phonon calculation
NFREE = 2        ! 2 independent degrees of freedom
POTIM = 0.015    ! Small displacement step for phonos
NSW = 10         ! 10 ionic steps
EDIFFG = -0.02   ! forces smaller 0.02 A/eV
