MFI
1.0
       20.0900001526         0.0000000000         0.0000000000
        0.0000000000        19.7380008698         0.0000000000
        0.0000000000         0.0000000000        13.1420001984
    O   Si   Al    H
  192   95    1    1
Cartesian
    10.069108076         1.379686261         9.223055739
    10.020892076        18.358314609         3.918944459
    20.065892152        18.358314609         2.652055640
     0.024108000         1.379686261        10.489944558
    10.020892076        11.248686696         3.918944459
    10.069108076         8.489314174         9.223055739
     0.024108000         8.489314174        10.489944558
    20.065892152        11.248686696         2.652055640
     7.784875059         1.466533465        10.524113759
    12.305125093        18.271467405         2.617886440
     2.260125017        18.271467405         3.953113660
    17.829875135         1.466533465         9.188886539
    12.305125093        11.335533899         2.617886440
     7.784875059         8.402466970        10.524113759
    17.829875135         8.402466970         9.188886539
     2.260125017        11.335533899         3.953113660
     8.025955061         2.696210919         8.215064324
    12.064045092        17.041789951         4.926935874
     2.019045015        17.041789951         1.644064225
    18.070955137         2.696210919        11.497935974
    12.064045092        12.565211354         4.926935874
     8.025955061         7.172789516         8.215064324
    18.070955137         7.172789516        11.497935974
     2.019045015        12.565211354         1.644064225
     7.979748061         0.067109203         8.313629325
    12.110252092        19.670891667         4.828370873
     2.065252016        19.670891667         1.742629226
    18.024748137         0.067109203        11.399370972
    12.110252092         9.936109638         4.828370873
     7.979748061         9.801891232         8.313629325
    18.024748137         9.801891232        11.399370972
     2.065252016         9.936109638         1.742629226
     6.609610050         0.759913033        12.776652593
    13.480390102        18.978087836         0.365347606
     3.435390026        18.978087836         6.205652494
    16.654610126         0.759913033         6.936347705
    13.480390102        10.628913468         0.365347606
     6.609610050         9.109087401        12.776652593
    16.654610126         9.109087401         6.936347705
     3.435390026        10.628913468         6.205652494
     6.623673050        18.859659831        10.717301162
    13.466327102         0.878341039         2.424699037
     3.421327026         0.878341039         4.146301063
    16.668673127        18.859659831         8.995699136
    13.466327102         8.990659396         2.424699037
     6.623673050        10.747341474        10.717301162
    16.668673127        10.747341474         8.995699136
     3.421327026         8.990659396         4.146301063
     5.165139039         1.308629458        10.652905361
    14.924861113        18.429371412         2.489094838
     4.879861037        18.429371412         4.081905262
    15.210139116         1.308629458         9.060094937
    14.924861113        11.177629893         2.489094838
     5.165139039         8.560370977        10.652905361
    15.210139116         8.560370977         9.060094937
     4.879861037        11.177629893         4.081905262
     5.846190044         2.558044913         1.393052021
    14.243810108        17.179955957        11.748948177
     4.198810032        17.179955957         7.964052120
    15.891190121         2.558044913         5.177948078
    14.243810108        12.427045348        11.748948177
     5.846190044         7.310955522         1.393052021
    15.891190121         7.310955522         5.177948078
     4.198810032        12.427045348         7.964052120
     4.086306031         0.898079040         0.361405005
    16.003694122        18.839921830        12.780595193
     5.958694045        18.839921830         6.932405105
    14.131306107         0.898079040         6.209595094
    16.003694122        10.767079474        12.780595193
     4.086306031         8.970921395         0.361405005
    14.131306107         8.970921395         6.209595094
     5.958694045        10.767079474         6.932405105
     5.898424045         0.019738001         2.055408831
    14.191576108        19.718262869        11.086591367
     4.146576031        19.718262869         8.626408930
    15.943424121         0.019738001         4.515591268
    14.191576108         9.888738436        11.086591367
     5.898424045         9.849262434         2.055408831
    15.943424121         9.849262434         4.515591268
     4.146576031         9.888738436         8.626408930
     2.159675016         2.496857110         1.160438618
    17.930325136        17.241143760        11.981561581
     7.885325060        17.241143760         7.731438717
    12.204675093         2.496857110         5.410561482
    17.930325136        12.365857545        11.981561581
     2.159675016         7.372143325         1.160438618
    12.204675093         7.372143325         5.410561482
     7.885325060        12.365857545         7.731438717
     1.699614013         0.730306032        12.409990787
    18.390386140        19.007694838         0.732009411
     8.345386063        19.007694838         5.838990688
    11.744614089         0.730306032         7.303009510
    18.390386140        10.599306467         0.732009411
     1.699614013         9.138694403        12.409990787
    11.744614089         9.138694403         7.303009510
     8.345386063        10.599306467         5.838990688
     2.613709020         1.541537868        10.079914152
    17.476291133        18.196463002         3.062086046
     7.431291056        18.196463002         3.508914053
    12.658709096         1.541537868         9.633086145
    17.476291133        11.410538303         3.062086046
     2.613709020         8.327462567        10.079914152
    12.658709096         8.327462567         9.633086145
     7.431291056        11.410538303         3.508914053
     1.462552011        18.926769034        10.292814555
    18.627448141         0.811231836         2.849185643
     8.582448065         0.811231836         3.721814456
    11.507552087        18.926769034         9.420185742
    18.627448141         9.057768599         2.849185643
     1.462552011        10.680232271        10.292814555
    11.507552087        10.680232271         9.420185742
     8.582448065         9.057768599         3.721814456
     4.421809034         2.591599514         8.484475328
    15.668191119        17.146401356         4.657524870
     5.623191043        17.146401356         1.913475229
    14.466809110         2.591599514        11.228524969
    15.668191119        12.460599949         4.657524870
     4.421809034         7.277400921         8.484475328
    14.466809110         7.277400921        11.228524969
     5.623191043        12.460599949         1.913475229
     9.866199075        16.872043143         9.421499942
    10.223801078         2.865957726         3.720500256
     0.178801001         2.865957726         2.850499843
    19.911199151        16.872043143        10.291500355
    10.223801078         7.003042709         3.720500256
     9.866199075        12.734958161         9.421499942
    19.911199151        12.734958161        10.291500355
     0.178801001         7.003042709         2.850499843
     7.395129056        16.404252523        10.175850754
    12.694871096         3.333748347         2.966149445
     2.649871020         3.333748347         3.604850654
    17.440129132        16.404252523         9.537149544
    12.694871096         6.535252088         2.966149445
     7.395129056        13.202748782        10.175850754
    17.440129132        13.202748782         9.537149544
     2.649871020         6.535252088         3.604850654
     8.564367065        14.803500652         8.451620328
    11.525633088         4.934500217         4.690379871
     1.480633011         4.934500217         1.880620228
    18.609367141        14.803500652        11.261379970
     6.462953049        16.996392549        12.565066390
    13.627047104         2.741608321         0.576933809
     3.582047027         2.741608321         5.994066290
    16.507953125        16.996392549         7.147933908
    13.627047104         7.127392114         0.576933809
     6.462953049        12.610608756        12.565066390
    16.507953125        12.610608756         7.147933908
     3.582047027         7.127392114         5.994066290
     4.841690037        16.939152346        10.500458158
    15.248310116         2.798848523         2.641542040
     5.203310040         2.798848523         3.929458059
    14.886690113        16.939152346         9.212542139
    15.248310116         7.070151912         2.641542040
     4.841690037        12.667848958        10.500458158
    14.886690113        12.667848958         9.212542139
     5.203310040         7.070151912         3.929458059
     5.912487045        14.803500652         0.760921811
    14.177513108         4.934500217        12.381078387
     4.132513031         4.934500217         7.331921911
    15.957487121        14.803500652         5.810078288
     3.969784030        16.408200123         0.003942600
    16.120216122         3.329800747        13.138057598
     6.075216046         3.329800747         6.574942699
    14.014784106        16.408200123         6.567057499
    16.120216122         6.539199688        13.138057598
     3.969784030        13.198801182         0.003942600
    14.014784106        13.198801182         6.567057499
     6.075216046         6.539199688         6.574942699
     1.904532014        14.803500652         0.269411004
    18.185468138         4.934500217        12.872589194
     8.140468062         4.934500217         6.840411103
    11.949532091        14.803500652         6.301589095
     1.625281012        17.112846754        12.189205184
    18.464719140         2.625154116         0.952795014
     8.419719064         2.625154116         5.618205085
    11.670281089        17.112846754         7.523795114
    18.464719140         7.243846319         0.952795014
     1.625281012        12.494154551        12.189205184
    11.670281089        12.494154551         7.523795114
     8.419719064         7.243846319         5.618205085
     2.364593018        16.520706728         9.732965347
    17.725407135         3.217294142         3.409034851
     7.680407058         3.217294142         3.161965248
    12.409593094        16.520706728         9.980034951
    17.725407135         6.651706293         3.409034851
     2.364593018        13.086294577         9.732965347
    12.409593094        13.086294577         9.980034951
     7.680407058         6.651706293         3.161965248
     4.251044032        14.803500652         9.085064737
    15.838956120         4.934500217         4.056935461
     5.793956044         4.934500217         2.514064638
    14.296044109        14.803500652        10.627935560
    11.624074088        18.334629008         4.076648462
     1.579074012        18.334629008         2.494351638
    18.510926141         1.403371862        10.647648561
    11.624074088        11.272372297         4.076648462
     8.465926064         8.465628573         9.065351737
    18.510926141         8.465628573        10.647648561
     1.579074012        11.272372297         2.494351638
     6.547331050         0.663196829        11.170700169
    13.542669103        19.074804041         1.971300030
     3.497669027        19.074804041         4.599700069
    16.592331126         0.663196829         8.542300129
    13.542669103        10.532197264         1.971300030
     6.547331050         9.205803606        11.170700169
    16.592331126         9.205803606         8.542300129
     3.497669027        10.532197264         4.599700069
     5.609128043         1.057956847         0.860801013
    14.480872110        18.680044023        12.281199185
     4.435872034        18.680044023         7.431801112
    15.654128119         1.057956847         5.710199086
    14.480872110        10.926957281        12.281199185
     5.609128043         8.811043588         0.860801013
    15.654128119         8.811043588         5.710199086
     4.435872034        10.926957281         7.431801112
     2.503214019         1.014533245         0.632130210
    17.586786134        18.723467625        12.509869989
     7.541786057        18.723467625         7.203130309
    12.548214095         1.014533245         5.938869890
    17.586786134        10.883533680        12.509869989
     2.503214019         8.854467190         0.632130210
    12.548214095         8.854467190         5.938869890
     7.541786057        10.883533680         7.203130309
     1.448489011         0.710568031        10.819808763
    18.641511142        19.027432838         2.322191435
     8.596511065        19.027432838         4.248808664
    11.493489087         0.710568031         8.893191534
    18.641511142        10.579568466         2.322191435
     1.448489011         9.158432404        10.819808763
    11.493489087         9.158432404         8.893191534
     8.596511065        10.579568466         4.248808664
     4.086306031         1.356000660         9.458297543
    16.003694122        18.382000210         3.683702656
     5.958694045        18.382000210         2.887297444
    14.131306107         1.356000660        10.254702755
    16.003694122        11.225001095         3.683702656
     4.086306031         8.512999775         9.458297543
    14.131306107         8.512999775        10.254702755
     5.958694045        11.225001095         2.887297444
     8.427755064        16.331221920         8.943131135
    11.662245089         3.406778950         4.198869063
     1.617245012         3.406778950         2.372131036
    18.472755140        16.331221920        10.769869163
    11.662245089         6.462221485         4.198869063
     8.427755064        13.275779385         8.943131135
    18.472755140        13.275779385        10.769869163
     1.617245012         6.462221485         2.372131036
     6.332368048        17.300357762        10.988026366
    13.757632104         2.437643107         2.153973833
     3.712632028         2.437643107         4.417026267
    16.377368124        17.300357762         8.724973932
    13.757632104         7.431357327         2.153973833
     6.332368048        12.306643542        10.988026366
    16.377368124        12.306643542         8.724973932
     3.712632028         7.431357327         4.417026267
     5.490597042        16.339117120         0.528308408
    14.599403111         3.398883750        12.613691790
     4.554403035         3.398883750         7.099308507
    15.535597118        16.339117120         6.042691691
    14.599403111         6.470116685        12.613691790
     5.490597042        13.267884185         0.528308408
    15.535597118        13.267884185         6.042691691
     4.554403035         6.470116685         7.099308507
     2.380665018        16.341090920         0.240498604
    17.709335135         3.396909950        12.901501595
     7.664335058         3.396909950         6.811498703
    12.425665094        16.341090920         6.330501496
    17.709335135         6.472090485        12.901501595
     2.380665018        13.265910385         0.240498604
    12.425665094        13.265910385         6.330501496
     7.664335058         6.472090485         6.811498703
     1.319913010        17.357597965        10.627935560
    18.770087143         2.380402905         2.514064638
     8.725087066         2.380402905         4.056935461
    11.364913086        17.357597965         9.085064737
    18.770087143         7.488597530         2.514064638
     1.319913010        12.249403340        10.627935560
    11.364913086        12.249403340         9.085064737
     8.725087066         7.488597530         4.056935461
     3.911523030        16.358855121         9.320306541
    16.178477123         3.379145749         3.821693658
     6.133477047         3.379145749         2.749306441
    13.956523106        16.358855121        10.392693757
    16.178477123         6.489854686         3.821693658
     3.911523030        13.248146184         9.320306541
    13.956523106        13.248146184        10.392693757
     6.133477047         6.489854686         2.749306441
     8.465926064         1.403371862         9.065351737
    10.069108076         2.565940113         9.223055739
